c nIsolatedPIs 5
c maxPI 130
p cnf 688 1675
c gate 131 -74 -125 0
-74 -131 0
-125 -131 0
74 125 131 0
c gate 132 -72 125 0
-72 -132 0
125 -132 0
72 -125 132 0
c gate 133 124 -132 0
124 -133 0
-132 -133 0
-124 132 133 0
c gate 134 -131 133 0
-131 -134 0
133 -134 0
131 -133 134 0
c gate 135 -75 -125 0
-75 -135 0
-125 -135 0
75 125 135 0
c gate 136 -73 125 0
-73 -136 0
125 -136 0
73 -125 136 0
c gate 137 -135 -136 0
-135 -137 0
-136 -137 0
135 136 137 0
c gate 138 -124 137 0
-124 -138 0
137 -138 0
124 -137 138 0
c gate 139 -127 -138 0
-127 -139 0
-138 -139 0
127 138 139 0
c gate 140 -134 139 0
-134 -140 0
139 -140 0
134 -139 140 0
c gate 141 -64 125 0
-64 -141 0
125 -141 0
64 -125 141 0
c gate 142 -66 -125 0
-66 -142 0
-125 -142 0
66 125 142 0
c gate 143 -141 -142 0
-141 -143 0
-142 -143 0
141 142 143 0
c gate 144 124 143 0
124 -144 0
143 -144 0
-124 -143 144 0
c gate 145 -67 -125 0
-67 -145 0
-125 -145 0
67 125 145 0
c gate 146 -65 125 0
-65 -146 0
125 -146 0
65 -125 146 0
c gate 147 -145 -146 0
-145 -147 0
-146 -147 0
145 146 147 0
c gate 148 -124 147 0
-124 -148 0
147 -148 0
124 -147 148 0
c gate 149 127 -148 0
127 -149 0
-148 -149 0
-127 148 149 0
c gate 150 -144 149 0
-144 -150 0
149 -150 0
144 -149 150 0
c gate 151 -140 -150 0
-140 -151 0
-150 -151 0
140 150 151 0
c gate 152 126 -151 0
126 -152 0
-151 -152 0
-126 151 152 0
c gate 153 -70 -125 0
-70 -153 0
-125 -153 0
70 125 153 0
c gate 154 -68 125 0
-68 -154 0
125 -154 0
68 -125 154 0
c gate 155 124 -154 0
124 -155 0
-154 -155 0
-124 154 155 0
c gate 156 -153 155 0
-153 -156 0
155 -156 0
153 -155 156 0
c gate 157 -71 -125 0
-71 -157 0
-125 -157 0
71 125 157 0
c gate 158 -69 125 0
-69 -158 0
125 -158 0
69 -125 158 0
c gate 159 -157 -158 0
-157 -159 0
-158 -159 0
157 158 159 0
c gate 160 -124 159 0
-124 -160 0
159 -160 0
124 -159 160 0
c gate 161 127 -160 0
127 -161 0
-160 -161 0
-127 160 161 0
c gate 162 -156 161 0
-156 -162 0
161 -162 0
156 -161 162 0
c gate 163 -78 -125 0
-78 -163 0
-125 -163 0
78 125 163 0
c gate 164 -76 125 0
-76 -164 0
125 -164 0
76 -125 164 0
c gate 165 124 -164 0
124 -165 0
-164 -165 0
-124 164 165 0
c gate 166 -163 165 0
-163 -166 0
165 -166 0
163 -165 166 0
c gate 167 -79 -125 0
-79 -167 0
-125 -167 0
79 125 167 0
c gate 168 -77 125 0
-77 -168 0
125 -168 0
77 -125 168 0
c gate 169 -167 -168 0
-167 -169 0
-168 -169 0
167 168 169 0
c gate 170 -124 169 0
-124 -170 0
169 -170 0
124 -169 170 0
c gate 171 -127 -170 0
-127 -171 0
-170 -171 0
127 170 171 0
c gate 172 -166 171 0
-166 -172 0
171 -172 0
166 -171 172 0
c gate 173 -162 -172 0
-162 -173 0
-172 -173 0
162 172 173 0
c gate 174 -126 -173 0
-126 -174 0
-173 -174 0
126 173 174 0
c gate 175 129 -174 0
129 -175 0
-174 -175 0
-129 174 175 0
c gate 176 -152 175 0
-152 -176 0
175 -176 0
152 -175 176 0
c gate 177 -99 125 0
-99 -177 0
125 -177 0
99 -125 177 0
c gate 178 -101 -125 0
-101 -178 0
-125 -178 0
101 125 178 0
c gate 179 -177 -178 0
-177 -179 0
-178 -179 0
177 178 179 0
c gate 180 124 179 0
124 -180 0
179 -180 0
-124 -179 180 0
c gate 181 -102 -125 0
-102 -181 0
-125 -181 0
102 125 181 0
c gate 182 -100 125 0
-100 -182 0
125 -182 0
100 -125 182 0
c gate 183 -124 -182 0
-124 -183 0
-182 -183 0
124 182 183 0
c gate 184 -181 183 0
-181 -184 0
183 -184 0
181 -183 184 0
c gate 185 127 -184 0
127 -185 0
-184 -185 0
-127 184 185 0
c gate 186 -180 185 0
-180 -186 0
185 -186 0
180 -185 186 0
c gate 187 -108 125 0
-108 -187 0
125 -187 0
108 -125 187 0
c gate 188 -110 -125 0
-110 -188 0
-125 -188 0
110 125 188 0
c gate 189 -124 -188 0
-124 -189 0
-188 -189 0
124 188 189 0
c gate 190 -187 189 0
-187 -190 0
189 -190 0
187 -189 190 0
c gate 191 -107 125 0
-107 -191 0
125 -191 0
107 -125 191 0
c gate 192 -109 -125 0
-109 -192 0
-125 -192 0
109 125 192 0
c gate 193 124 -192 0
124 -193 0
-192 -193 0
-124 192 193 0
c gate 194 -191 193 0
-191 -194 0
193 -194 0
191 -193 194 0
c gate 195 -127 -194 0
-127 -195 0
-194 -195 0
127 194 195 0
c gate 196 -190 195 0
-190 -196 0
195 -196 0
190 -195 196 0
c gate 197 -126 -196 0
-126 -197 0
-196 -197 0
126 196 197 0
c gate 198 -186 197 0
-186 -198 0
197 -198 0
186 -197 198 0
c gate 199 -95 125 0
-95 -199 0
125 -199 0
95 -125 199 0
c gate 200 -97 -125 0
-97 -200 0
-125 -200 0
97 125 200 0
c gate 201 -199 -200 0
-199 -201 0
-200 -201 0
199 200 201 0
c gate 202 124 201 0
124 -202 0
201 -202 0
-124 -201 202 0
c gate 203 -98 -125 0
-98 -203 0
-125 -203 0
98 125 203 0
c gate 204 -96 125 0
-96 -204 0
125 -204 0
96 -125 204 0
c gate 205 -124 -204 0
-124 -205 0
-204 -205 0
124 204 205 0
c gate 206 -203 205 0
-203 -206 0
205 -206 0
203 -205 206 0
c gate 207 127 -206 0
127 -207 0
-206 -207 0
-127 206 207 0
c gate 208 -202 207 0
-202 -208 0
207 -208 0
202 -207 208 0
c gate 209 -104 125 0
-104 -209 0
125 -209 0
104 -125 209 0
c gate 210 -106 -125 0
-106 -210 0
-125 -210 0
106 125 210 0
c gate 211 -124 -210 0
-124 -211 0
-210 -211 0
124 210 211 0
c gate 212 -209 211 0
-209 -212 0
211 -212 0
209 -211 212 0
c gate 213 -103 125 0
-103 -213 0
125 -213 0
103 -125 213 0
c gate 214 -105 -125 0
-105 -214 0
-125 -214 0
105 125 214 0
c gate 215 124 -214 0
124 -215 0
-214 -215 0
-124 214 215 0
c gate 216 -213 215 0
-213 -216 0
215 -216 0
213 -215 216 0
c gate 217 -127 -216 0
-127 -217 0
-216 -217 0
127 216 217 0
c gate 218 -212 217 0
-212 -218 0
217 -218 0
212 -217 218 0
c gate 219 126 -218 0
126 -219 0
-218 -219 0
-126 218 219 0
c gate 220 -208 219 0
-208 -220 0
219 -220 0
208 -219 220 0
c gate 221 -198 -220 0
-198 -221 0
-220 -221 0
198 220 221 0
c gate 222 -129 -221 0
-129 -222 0
-221 -222 0
129 221 222 0
c gate 223 128 -222 0
128 -223 0
-222 -223 0
-128 222 223 0
c gate 224 -176 223 0
-176 -224 0
223 -224 0
176 -223 224 0
c gate 225 130 224 0
130 -225 0
224 -225 0
-130 -224 225 0
c gate 226 -38 125 0
-38 -226 0
125 -226 0
38 -125 226 0
c gate 227 -40 -125 0
-40 -227 0
-125 -227 0
40 125 227 0
c gate 228 -124 -227 0
-124 -228 0
-227 -228 0
124 227 228 0
c gate 229 -226 228 0
-226 -229 0
228 -229 0
226 -228 229 0
c gate 230 -37 125 0
-37 -230 0
125 -230 0
37 -125 230 0
c gate 231 -39 -125 0
-39 -231 0
-125 -231 0
39 125 231 0
c gate 232 124 -231 0
124 -232 0
-231 -232 0
-124 231 232 0
c gate 233 -230 232 0
-230 -233 0
232 -233 0
230 -232 233 0
c gate 234 127 -233 0
127 -234 0
-233 -234 0
-127 233 234 0
c gate 235 -229 234 0
-229 -235 0
234 -235 0
229 -234 235 0
c gate 236 -45 125 0
-45 -236 0
125 -236 0
45 -125 236 0
c gate 237 -47 -125 0
-47 -237 0
-125 -237 0
47 125 237 0
c gate 238 124 -237 0
124 -238 0
-237 -238 0
-124 237 238 0
c gate 239 -236 238 0
-236 -239 0
238 -239 0
236 -238 239 0
c gate 240 -46 125 0
-46 -240 0
125 -240 0
46 -125 240 0
c gate 241 -48 -125 0
-48 -241 0
-125 -241 0
48 125 241 0
c gate 242 -124 -241 0
-124 -242 0
-241 -242 0
124 241 242 0
c gate 243 -240 242 0
-240 -243 0
242 -243 0
240 -242 243 0
c gate 244 -239 -243 0
-239 -244 0
-243 -244 0
239 243 244 0
c gate 245 -127 244 0
-127 -245 0
244 -245 0
127 -244 245 0
c gate 246 -126 -245 0
-126 -246 0
-245 -246 0
126 245 246 0
c gate 247 -235 246 0
-235 -247 0
246 -247 0
235 -246 247 0
c gate 248 -34 125 0
-34 -248 0
125 -248 0
34 -125 248 0
c gate 249 -36 -125 0
-36 -249 0
-125 -249 0
36 125 249 0
c gate 250 -124 -249 0
-124 -250 0
-249 -250 0
124 249 250 0
c gate 251 -248 250 0
-248 -251 0
250 -251 0
248 -250 251 0
c gate 252 -33 125 0
-33 -252 0
125 -252 0
33 -125 252 0
c gate 253 -35 -125 0
-35 -253 0
-125 -253 0
35 125 253 0
c gate 254 124 -253 0
124 -254 0
-253 -254 0
-124 253 254 0
c gate 255 -252 254 0
-252 -255 0
254 -255 0
252 -254 255 0
c gate 256 127 -255 0
127 -256 0
-255 -256 0
-127 255 256 0
c gate 257 -251 256 0
-251 -257 0
256 -257 0
251 -256 257 0
c gate 258 -41 125 0
-41 -258 0
125 -258 0
41 -125 258 0
c gate 259 -43 -125 0
-43 -259 0
-125 -259 0
43 125 259 0
c gate 260 124 -259 0
124 -260 0
-259 -260 0
-124 259 260 0
c gate 261 -258 260 0
-258 -261 0
260 -261 0
258 -260 261 0
c gate 262 -42 125 0
-42 -262 0
125 -262 0
42 -125 262 0
c gate 263 -44 -125 0
-44 -263 0
-125 -263 0
44 125 263 0
c gate 264 -124 -263 0
-124 -264 0
-263 -264 0
124 263 264 0
c gate 265 -262 264 0
-262 -265 0
264 -265 0
262 -264 265 0
c gate 266 -261 -265 0
-261 -266 0
-265 -266 0
261 265 266 0
c gate 267 -127 266 0
-127 -267 0
266 -267 0
127 -266 267 0
c gate 268 126 -267 0
126 -268 0
-267 -268 0
-126 267 268 0
c gate 269 -257 268 0
-257 -269 0
268 -269 0
257 -268 269 0
c gate 270 -247 -269 0
-247 -270 0
-269 -270 0
247 269 270 0
c gate 271 129 -270 0
129 -271 0
-270 -271 0
-129 270 271 0
c gate 272 124 147 0
124 -272 0
147 -272 0
-124 -147 272 0
c gate 273 -66 125 0
-66 -273 0
125 -273 0
66 -125 273 0
c gate 274 -68 -125 0
-68 -274 0
-125 -274 0
68 125 274 0
c gate 275 -124 -274 0
-124 -275 0
-274 -275 0
124 274 275 0
c gate 276 -273 275 0
-273 -276 0
275 -276 0
273 -275 276 0
c gate 277 127 -276 0
127 -277 0
-276 -277 0
-127 276 277 0
c gate 278 -272 277 0
-272 -278 0
277 -278 0
272 -277 278 0
c gate 279 124 137 0
124 -279 0
137 -279 0
-124 -137 279 0
c gate 280 -74 125 0
-74 -280 0
125 -280 0
74 -125 280 0
c gate 281 -76 -125 0
-76 -281 0
-125 -281 0
76 125 281 0
c gate 282 -124 -281 0
-124 -282 0
-281 -282 0
124 281 282 0
c gate 283 -280 282 0
-280 -283 0
282 -283 0
280 -282 283 0
c gate 284 -127 -283 0
-127 -284 0
-283 -284 0
127 283 284 0
c gate 285 -279 284 0
-279 -285 0
284 -285 0
279 -284 285 0
c gate 286 -278 -285 0
-278 -286 0
-285 -286 0
278 285 286 0
c gate 287 126 -286 0
126 -287 0
-286 -287 0
-126 286 287 0
c gate 288 124 169 0
124 -288 0
169 -288 0
-124 -169 288 0
c gate 289 -78 125 0
-78 -289 0
125 -289 0
78 -125 289 0
c gate 290 -80 -125 0
-80 -290 0
-125 -290 0
80 125 290 0
c gate 291 -124 -290 0
-124 -291 0
-290 -291 0
124 290 291 0
c gate 292 -289 291 0
-289 -292 0
291 -292 0
289 -291 292 0
c gate 293 -127 -292 0
-127 -293 0
-292 -293 0
127 292 293 0
c gate 294 -288 293 0
-288 -294 0
293 -294 0
288 -293 294 0
c gate 295 124 159 0
124 -295 0
159 -295 0
-124 -159 295 0
c gate 296 -70 125 0
-70 -296 0
125 -296 0
70 -125 296 0
c gate 297 -72 -125 0
-72 -297 0
-125 -297 0
72 125 297 0
c gate 298 -124 -297 0
-124 -298 0
-297 -298 0
124 297 298 0
c gate 299 -296 298 0
-296 -299 0
298 -299 0
296 -298 299 0
c gate 300 127 -299 0
127 -300 0
-299 -300 0
-127 299 300 0
c gate 301 -295 300 0
-295 -301 0
300 -301 0
295 -300 301 0
c gate 302 -294 -301 0
-294 -302 0
-301 -302 0
294 301 302 0
c gate 303 -126 -302 0
-126 -303 0
-302 -303 0
126 302 303 0
c gate 304 -129 -303 0
-129 -304 0
-303 -304 0
129 303 304 0
c gate 305 -287 304 0
-287 -305 0
304 -305 0
287 -304 305 0
c gate 306 -271 -305 0
-271 -306 0
-305 -306 0
271 305 306 0
c gate 307 128 -306 0
128 -307 0
-306 -307 0
-128 306 307 0
c gate 308 130 307 0
130 -308 0
307 -308 0
-130 -307 308 0
c gate 309 21 125 0
21 -309 0
125 -309 0
-21 -125 309 0
c gate 310 23 -125 0
23 -310 0
-125 -310 0
-23 125 310 0
c gate 311 124 -310 0
124 -311 0
-310 -311 0
-124 310 311 0
c gate 312 -309 311 0
-309 -312 0
311 -312 0
309 -311 312 0
c gate 313 22 125 0
22 -313 0
125 -313 0
-22 -125 313 0
c gate 314 24 -125 0
24 -314 0
-125 -314 0
-24 125 314 0
c gate 315 -124 -314 0
-124 -315 0
-314 -315 0
124 314 315 0
c gate 316 -313 315 0
-313 -316 0
315 -316 0
313 -315 316 0
c gate 317 -127 -316 0
-127 -317 0
-316 -317 0
127 316 317 0
c gate 318 -312 317 0
-312 -318 0
317 -318 0
312 -317 318 0
c gate 319 14 125 0
14 -319 0
125 -319 0
-14 -125 319 0
c gate 320 16 -125 0
16 -320 0
-125 -320 0
-16 125 320 0
c gate 321 -124 -320 0
-124 -321 0
-320 -321 0
124 320 321 0
c gate 322 -319 321 0
-319 -322 0
321 -322 0
319 -321 322 0
c gate 323 13 125 0
13 -323 0
125 -323 0
-13 -125 323 0
c gate 324 15 -125 0
15 -324 0
-125 -324 0
-15 125 324 0
c gate 325 124 -324 0
124 -325 0
-324 -325 0
-124 324 325 0
c gate 326 -323 325 0
-323 -326 0
325 -326 0
323 -325 326 0
c gate 327 127 -326 0
127 -327 0
-326 -327 0
-127 326 327 0
c gate 328 -322 327 0
-322 -328 0
327 -328 0
322 -327 328 0
c gate 329 -126 -328 0
-126 -329 0
-328 -329 0
126 328 329 0
c gate 330 -318 329 0
-318 -330 0
329 -330 0
318 -329 330 0
c gate 331 17 125 0
17 -331 0
125 -331 0
-17 -125 331 0
c gate 332 19 -125 0
19 -332 0
-125 -332 0
-19 125 332 0
c gate 333 124 -332 0
124 -333 0
-332 -333 0
-124 332 333 0
c gate 334 -331 333 0
-331 -334 0
333 -334 0
331 -333 334 0
c gate 335 18 125 0
18 -335 0
125 -335 0
-18 -125 335 0
c gate 336 20 -125 0
20 -336 0
-125 -336 0
-20 125 336 0
c gate 337 -124 -336 0
-124 -337 0
-336 -337 0
124 336 337 0
c gate 338 -335 337 0
-335 -338 0
337 -338 0
335 -337 338 0
c gate 339 -127 -338 0
-127 -339 0
-338 -339 0
127 338 339 0
c gate 340 -334 339 0
-334 -340 0
339 -340 0
334 -339 340 0
c gate 341 10 125 0
10 -341 0
125 -341 0
-10 -125 341 0
c gate 342 12 -125 0
12 -342 0
-125 -342 0
-12 125 342 0
c gate 343 -124 -342 0
-124 -343 0
-342 -343 0
124 342 343 0
c gate 344 -341 343 0
-341 -344 0
343 -344 0
341 -343 344 0
c gate 345 9 125 0
9 -345 0
125 -345 0
-9 -125 345 0
c gate 346 11 -125 0
11 -346 0
-125 -346 0
-11 125 346 0
c gate 347 124 -346 0
124 -347 0
-346 -347 0
-124 346 347 0
c gate 348 -345 347 0
-345 -348 0
347 -348 0
345 -347 348 0
c gate 349 127 -348 0
127 -349 0
-348 -349 0
-127 348 349 0
c gate 350 -344 349 0
-344 -350 0
349 -350 0
344 -349 350 0
c gate 351 126 -350 0
126 -351 0
-350 -351 0
-126 350 351 0
c gate 352 -340 351 0
-340 -352 0
351 -352 0
340 -351 352 0
c gate 353 -330 -352 0
-330 -353 0
-352 -353 0
330 352 353 0
c gate 354 129 -353 0
129 -354 0
-353 -354 0
-129 353 354 0
c gate 355 -49 125 0
-49 -355 0
125 -355 0
49 -125 355 0
c gate 356 -51 -125 0
-51 -356 0
-125 -356 0
51 125 356 0
c gate 357 124 -356 0
124 -357 0
-356 -357 0
-124 356 357 0
c gate 358 -355 357 0
-355 -358 0
357 -358 0
355 -357 358 0
c gate 359 -50 125 0
-50 -359 0
125 -359 0
50 -125 359 0
c gate 360 -52 -125 0
-52 -360 0
-125 -360 0
52 125 360 0
c gate 361 -124 -360 0
-124 -361 0
-360 -361 0
124 360 361 0
c gate 362 -359 361 0
-359 -362 0
361 -362 0
359 -361 362 0
c gate 363 -358 -362 0
-358 -363 0
-362 -363 0
358 362 363 0
c gate 364 -127 -363 0
-127 -364 0
-363 -364 0
127 363 364 0
c gate 365 127 -266 0
127 -365 0
-266 -365 0
-127 266 365 0
c gate 366 126 -365 0
126 -366 0
-365 -366 0
-126 365 366 0
c gate 367 -364 366 0
-364 -367 0
366 -367 0
364 -366 367 0
c gate 368 -53 125 0
-53 -368 0
125 -368 0
53 -125 368 0
c gate 369 -55 -125 0
-55 -369 0
-125 -369 0
55 125 369 0
c gate 370 124 -369 0
124 -370 0
-369 -370 0
-124 369 370 0
c gate 371 -368 370 0
-368 -371 0
370 -371 0
368 -370 371 0
c gate 372 -54 125 0
-54 -372 0
125 -372 0
54 -125 372 0
c gate 373 -56 -125 0
-56 -373 0
-125 -373 0
56 125 373 0
c gate 374 -124 -373 0
-124 -374 0
-373 -374 0
124 373 374 0
c gate 375 -372 374 0
-372 -375 0
374 -375 0
372 -374 375 0
c gate 376 -371 -375 0
-371 -376 0
-375 -376 0
371 375 376 0
c gate 377 -127 -376 0
-127 -377 0
-376 -377 0
127 376 377 0
c gate 378 127 -244 0
127 -378 0
-244 -378 0
-127 244 378 0
c gate 379 -126 -378 0
-126 -379 0
-378 -379 0
126 378 379 0
c gate 380 -377 379 0
-377 -380 0
379 -380 0
377 -379 380 0
c gate 381 -367 -380 0
-367 -381 0
-380 -381 0
367 380 381 0
c gate 382 -129 -381 0
-129 -382 0
-381 -382 0
129 381 382 0
c gate 383 128 -382 0
128 -383 0
-382 -383 0
-128 382 383 0
c gate 384 -354 383 0
-354 -384 0
383 -384 0
354 -383 384 0
c gate 385 130 384 0
130 -385 0
384 -385 0
-130 -384 385 0
c gate 386 -56 125 0
-56 -386 0
125 -386 0
56 -125 386 0
c gate 387 -58 -125 0
-58 -387 0
-125 -387 0
58 125 387 0
c gate 388 -124 -387 0
-124 -388 0
-387 -388 0
124 387 388 0
c gate 389 -386 388 0
-386 -389 0
388 -389 0
386 -388 389 0
c gate 390 -55 125 0
-55 -390 0
125 -390 0
55 -125 390 0
c gate 391 -57 -125 0
-57 -391 0
-125 -391 0
57 125 391 0
c gate 392 124 -391 0
124 -392 0
-391 -392 0
-124 391 392 0
c gate 393 -390 392 0
-390 -393 0
392 -393 0
390 -392 393 0
c gate 394 -389 -393 0
-389 -394 0
-393 -394 0
389 393 394 0
c gate 395 127 -394 0
127 -395 0
-394 -395 0
-127 394 395 0
c gate 396 -63 125 0
-63 -396 0
125 -396 0
63 -125 396 0
c gate 397 -65 -125 0
-65 -397 0
-125 -397 0
65 125 397 0
c gate 398 -396 -397 0
-396 -398 0
-397 -398 0
396 397 398 0
c gate 399 124 -398 0
124 -399 0
-398 -399 0
-124 398 399 0
c gate 400 -124 -143 0
-124 -400 0
-143 -400 0
124 143 400 0
c gate 401 -127 -400 0
-127 -401 0
-400 -401 0
127 400 401 0
c gate 402 -399 401 0
-399 -402 0
401 -402 0
399 -401 402 0
c gate 403 -395 -402 0
-395 -403 0
-402 -403 0
395 402 403 0
c gate 404 -126 -403 0
-126 -404 0
-403 -404 0
126 403 404 0
c gate 405 54 -125 0
54 -405 0
-125 -405 0
-54 125 405 0
c gate 406 52 125 0
52 -406 0
125 -406 0
-52 -125 406 0
c gate 407 -124 -406 0
-124 -407 0
-406 -407 0
124 406 407 0
c gate 408 -405 407 0
-405 -408 0
407 -408 0
405 -407 408 0
c gate 409 51 125 0
51 -409 0
125 -409 0
-51 -125 409 0
c gate 410 53 -125 0
53 -410 0
-125 -410 0
-53 125 410 0
c gate 411 124 -410 0
124 -411 0
-410 -411 0
-124 410 411 0
c gate 412 -409 411 0
-409 -412 0
411 -412 0
409 -411 412 0
c gate 413 -408 -412 0
-408 -413 0
-412 -413 0
408 412 413 0
c gate 414 127 -413 0
127 -414 0
-413 -414 0
-127 413 414 0
c gate 415 61 -125 0
61 -415 0
-125 -415 0
-61 125 415 0
c gate 416 59 125 0
59 -416 0
125 -416 0
-59 -125 416 0
c gate 417 124 -416 0
124 -417 0
-416 -417 0
-124 416 417 0
c gate 418 -415 417 0
-415 -418 0
417 -418 0
415 -417 418 0
c gate 419 60 125 0
60 -419 0
125 -419 0
-60 -125 419 0
c gate 420 62 -125 0
62 -420 0
-125 -420 0
-62 125 420 0
c gate 421 -124 -420 0
-124 -421 0
-420 -421 0
124 420 421 0
c gate 422 -419 421 0
-419 -422 0
421 -422 0
419 -421 422 0
c gate 423 -418 -422 0
-418 -423 0
-422 -423 0
418 422 423 0
c gate 424 -127 -423 0
-127 -424 0
-423 -424 0
127 423 424 0
c gate 425 126 -424 0
126 -425 0
-424 -425 0
-126 424 425 0
c gate 426 -414 425 0
-414 -426 0
425 -426 0
414 -425 426 0
c gate 427 -404 -426 0
-404 -427 0
-426 -427 0
404 426 427 0
c gate 428 -129 -427 0
-129 -428 0
-427 -428 0
129 427 428 0
c gate 429 27 125 0
27 -429 0
125 -429 0
-27 -125 429 0
c gate 430 29 -125 0
29 -430 0
-125 -430 0
-29 125 430 0
c gate 431 124 -430 0
124 -431 0
-430 -431 0
-124 430 431 0
c gate 432 -429 431 0
-429 -432 0
431 -432 0
429 -431 432 0
c gate 433 28 125 0
28 -433 0
125 -433 0
-28 -125 433 0
c gate 434 30 -125 0
30 -434 0
-125 -434 0
-30 125 434 0
c gate 435 -124 -434 0
-124 -435 0
-434 -435 0
124 434 435 0
c gate 436 -433 435 0
-433 -436 0
435 -436 0
433 -435 436 0
c gate 437 -432 -436 0
-432 -437 0
-436 -437 0
432 436 437 0
c gate 438 -127 -437 0
-127 -438 0
-437 -438 0
127 437 438 0
c gate 439 19 125 0
19 -439 0
125 -439 0
-19 -125 439 0
c gate 440 21 -125 0
21 -440 0
-125 -440 0
-21 125 440 0
c gate 441 124 -440 0
124 -441 0
-440 -441 0
-124 440 441 0
c gate 442 -439 441 0
-439 -442 0
441 -442 0
439 -441 442 0
c gate 443 20 125 0
20 -443 0
125 -443 0
-20 -125 443 0
c gate 444 22 -125 0
22 -444 0
-125 -444 0
-22 125 444 0
c gate 445 -124 -444 0
-124 -445 0
-444 -445 0
124 444 445 0
c gate 446 -443 445 0
-443 -446 0
445 -446 0
443 -445 446 0
c gate 447 -442 -446 0
-442 -447 0
-446 -447 0
442 446 447 0
c gate 448 127 -447 0
127 -448 0
-447 -448 0
-127 447 448 0
c gate 449 -438 -448 0
-438 -449 0
-448 -449 0
438 448 449 0
c gate 450 126 -449 0
126 -450 0
-449 -450 0
-126 449 450 0
c gate 451 24 125 0
24 -451 0
125 -451 0
-24 -125 451 0
c gate 452 26 -125 0
26 -452 0
-125 -452 0
-26 125 452 0
c gate 453 -124 -452 0
-124 -453 0
-452 -453 0
124 452 453 0
c gate 454 -451 453 0
-451 -454 0
453 -454 0
451 -453 454 0
c gate 455 23 125 0
23 -455 0
125 -455 0
-23 -125 455 0
c gate 456 25 -125 0
25 -456 0
-125 -456 0
-25 125 456 0
c gate 457 124 -456 0
124 -457 0
-456 -457 0
-124 456 457 0
c gate 458 -455 457 0
-455 -458 0
457 -458 0
455 -457 458 0
c gate 459 -454 -458 0
-454 -459 0
-458 -459 0
454 458 459 0
c gate 460 127 -459 0
127 -460 0
-459 -460 0
-127 459 460 0
c gate 461 32 125 0
32 -461 0
125 -461 0
-32 -125 461 0
c gate 462 34 -125 0
34 -462 0
-125 -462 0
-34 125 462 0
c gate 463 -124 -462 0
-124 -463 0
-462 -463 0
124 462 463 0
c gate 464 -461 463 0
-461 -464 0
463 -464 0
461 -463 464 0
c gate 465 31 125 0
31 -465 0
125 -465 0
-31 -125 465 0
c gate 466 33 -125 0
33 -466 0
-125 -466 0
-33 125 466 0
c gate 467 124 -466 0
124 -467 0
-466 -467 0
-124 466 467 0
c gate 468 -465 467 0
-465 -468 0
467 -468 0
465 -467 468 0
c gate 469 -464 -468 0
-464 -469 0
-468 -469 0
464 468 469 0
c gate 470 -127 -469 0
-127 -470 0
-469 -470 0
127 469 470 0
c gate 471 -460 -470 0
-460 -471 0
-470 -471 0
460 470 471 0
c gate 472 -126 -471 0
-126 -472 0
-471 -472 0
126 471 472 0
c gate 473 129 -472 0
129 -473 0
-472 -473 0
-129 472 473 0
c gate 474 -450 473 0
-450 -474 0
473 -474 0
450 -473 474 0
c gate 475 -428 -474 0
-428 -475 0
-474 -475 0
428 474 475 0
c gate 476 128 -475 0
128 -476 0
-475 -476 0
-128 475 476 0
c gate 477 130 476 0
130 -477 0
476 -477 0
-130 -476 477 0
c gate 478 -385 -477 0
-385 -478 0
-477 -478 0
385 477 478 0
c gate 479 -308 478 0
-308 -479 0
478 -479 0
308 -478 479 0
c gate 480 -130 384 0
-130 -480 0
384 -480 0
130 -384 480 0
c gate 481 479 -480 0
479 -481 0
-480 -481 0
-479 480 481 0
c gate 482 -88 -125 0
-88 -482 0
-125 -482 0
88 125 482 0
c gate 483 -86 125 0
-86 -483 0
125 -483 0
86 -125 483 0
c gate 484 -482 -483 0
-482 -484 0
-483 -484 0
482 483 484 0
c gate 485 124 484 0
124 -485 0
484 -485 0
-124 -484 485 0
c gate 486 -89 -125 0
-89 -486 0
-125 -486 0
89 125 486 0
c gate 487 -87 125 0
-87 -487 0
125 -487 0
87 -125 487 0
c gate 488 -124 -487 0
-124 -488 0
-487 -488 0
124 487 488 0
c gate 489 -486 488 0
-486 -489 0
488 -489 0
486 -488 489 0
c gate 490 127 -489 0
127 -490 0
-489 -490 0
-127 489 490 0
c gate 491 -485 490 0
-485 -491 0
490 -491 0
485 -490 491 0
c gate 492 -96 -125 0
-96 -492 0
-125 -492 0
96 125 492 0
c gate 493 -94 125 0
-94 -493 0
125 -493 0
94 -125 493 0
c gate 494 -492 -493 0
-492 -494 0
-493 -494 0
492 493 494 0
c gate 495 124 494 0
124 -495 0
494 -495 0
-124 -494 495 0
c gate 496 -124 201 0
-124 -496 0
201 -496 0
124 -201 496 0
c gate 497 -127 -496 0
-127 -497 0
-496 -497 0
127 496 497 0
c gate 498 -495 497 0
-495 -498 0
497 -498 0
495 -497 498 0
c gate 499 -491 -498 0
-491 -499 0
-498 -499 0
491 498 499 0
c gate 500 126 -499 0
126 -500 0
-499 -500 0
-126 499 500 0
c gate 501 -98 125 0
-98 -501 0
125 -501 0
98 -125 501 0
c gate 502 -100 -125 0
-100 -502 0
-125 -502 0
100 125 502 0
c gate 503 124 -502 0
124 -503 0
-502 -503 0
-124 502 503 0
c gate 504 -501 503 0
-501 -504 0
503 -504 0
501 -503 504 0
c gate 505 -124 179 0
-124 -505 0
179 -505 0
124 -179 505 0
c gate 506 -127 -505 0
-127 -506 0
-505 -506 0
127 505 506 0
c gate 507 -504 506 0
-504 -507 0
506 -507 0
504 -506 507 0
c gate 508 -92 -125 0
-92 -508 0
-125 -508 0
92 125 508 0
c gate 509 -90 125 0
-90 -509 0
125 -509 0
90 -125 509 0
c gate 510 -508 -509 0
-508 -510 0
-509 -510 0
508 509 510 0
c gate 511 124 510 0
124 -511 0
510 -511 0
-124 -510 511 0
c gate 512 -93 -125 0
-93 -512 0
-125 -512 0
93 125 512 0
c gate 513 -91 125 0
-91 -513 0
125 -513 0
91 -125 513 0
c gate 514 -124 -513 0
-124 -514 0
-513 -514 0
124 513 514 0
c gate 515 -512 514 0
-512 -515 0
514 -515 0
512 -514 515 0
c gate 516 127 -515 0
127 -516 0
-515 -516 0
-127 515 516 0
c gate 517 -511 516 0
-511 -517 0
516 -517 0
511 -516 517 0
c gate 518 -507 -517 0
-507 -518 0
-517 -518 0
507 517 518 0
c gate 519 -126 -518 0
-126 -519 0
-518 -519 0
126 518 519 0
c gate 520 129 -519 0
129 -520 0
-519 -520 0
-129 519 520 0
c gate 521 -500 520 0
-500 -521 0
520 -521 0
500 -520 521 0
c gate 522 -3 -125 0
-3 -522 0
-125 -522 0
3 125 522 0
c gate 523 -1 125 0
-1 -523 0
125 -523 0
1 -125 523 0
c gate 524 -522 -523 0
-522 -524 0
-523 -524 0
522 523 524 0
c gate 525 124 524 0
124 -525 0
524 -525 0
-124 -524 525 0
c gate 526 -4 -125 0
-4 -526 0
-125 -526 0
4 125 526 0
c gate 527 -2 125 0
-2 -527 0
125 -527 0
2 -125 527 0
c gate 528 -124 -527 0
-124 -528 0
-527 -528 0
124 527 528 0
c gate 529 -526 528 0
-526 -529 0
528 -529 0
526 -528 529 0
c gate 530 -127 -529 0
-127 -530 0
-529 -530 0
127 529 530 0
c gate 531 -525 530 0
-525 -531 0
530 -531 0
525 -530 531 0
c gate 532 -118 -125 0
-118 -532 0
-125 -532 0
118 125 532 0
c gate 533 -116 125 0
-116 -533 0
125 -533 0
116 -125 533 0
c gate 534 -532 -533 0
-532 -534 0
-533 -534 0
532 533 534 0
c gate 535 124 534 0
124 -535 0
534 -535 0
-124 -534 535 0
c gate 536 -119 -125 0
-119 -536 0
-125 -536 0
119 125 536 0
c gate 537 -117 125 0
-117 -537 0
125 -537 0
117 -125 537 0
c gate 538 -124 -537 0
-124 -538 0
-537 -538 0
124 537 538 0
c gate 539 -536 538 0
-536 -539 0
538 -539 0
536 -538 539 0
c gate 540 127 -539 0
127 -540 0
-539 -540 0
-127 539 540 0
c gate 541 -535 540 0
-535 -541 0
540 -541 0
535 -540 541 0
c gate 542 -531 -541 0
-531 -542 0
-541 -542 0
531 541 542 0
c gate 543 126 -542 0
126 -543 0
-542 -543 0
-126 542 543 0
c gate 544 6 125 0
6 -544 0
125 -544 0
-6 -125 544 0
c gate 545 8 -125 0
8 -545 0
-125 -545 0
-8 125 545 0
c gate 546 -124 -545 0
-124 -546 0
-545 -546 0
124 545 546 0
c gate 547 -544 546 0
-544 -547 0
546 -547 0
544 -546 547 0
c gate 548 5 125 0
5 -548 0
125 -548 0
-5 -125 548 0
c gate 549 7 -125 0
7 -549 0
-125 -549 0
-7 125 549 0
c gate 550 124 -549 0
124 -550 0
-549 -550 0
-124 549 550 0
c gate 551 -548 550 0
-548 -551 0
550 -551 0
548 -550 551 0
c gate 552 -547 -551 0
-547 -552 0
-551 -552 0
547 551 552 0
c gate 553 -127 -552 0
-127 -553 0
-552 -553 0
127 552 553 0
c gate 554 123 -125 0
123 -554 0
-125 -554 0
-123 125 554 0
c gate 555 121 125 0
121 -555 0
125 -555 0
-121 -125 555 0
c gate 556 -554 -555 0
-554 -556 0
-555 -556 0
554 555 556 0
c gate 557 -124 -556 0
-124 -557 0
-556 -557 0
124 556 557 0
c gate 558 -122 -125 0
-122 -558 0
-125 -558 0
122 125 558 0
c gate 559 -120 125 0
-120 -559 0
125 -559 0
120 -125 559 0
c gate 560 -558 -559 0
-558 -560 0
-559 -560 0
558 559 560 0
c gate 561 124 560 0
124 -561 0
560 -561 0
-124 -560 561 0
c gate 562 127 -561 0
127 -562 0
-561 -562 0
-127 561 562 0
c gate 563 -557 562 0
-557 -563 0
562 -563 0
557 -562 563 0
c gate 564 -553 -563 0
-553 -564 0
-563 -564 0
553 563 564 0
c gate 565 -126 -564 0
-126 -565 0
-564 -565 0
126 564 565 0
c gate 566 -543 -565 0
-543 -566 0
-565 -566 0
543 565 566 0
c gate 567 -129 566 0
-129 -567 0
566 -567 0
129 -566 567 0
c gate 568 128 -567 0
128 -568 0
-567 -568 0
-128 567 568 0
c gate 569 -521 568 0
-521 -569 0
568 -569 0
521 -568 569 0
c gate 570 130 569 0
130 -570 0
569 -570 0
-130 -569 570 0
c gate 571 -87 -125 0
-87 -571 0
-125 -571 0
87 125 571 0
c gate 572 -85 125 0
-85 -572 0
125 -572 0
85 -125 572 0
c gate 573 124 -572 0
124 -573 0
-572 -573 0
-124 572 573 0
c gate 574 -571 573 0
-571 -574 0
573 -574 0
571 -573 574 0
c gate 575 -124 484 0
-124 -575 0
484 -575 0
124 -484 575 0
c gate 576 127 -575 0
127 -576 0
-575 -576 0
-127 575 576 0
c gate 577 -574 576 0
-574 -577 0
576 -577 0
574 -576 577 0
c gate 578 -95 -125 0
-95 -578 0
-125 -578 0
95 125 578 0
c gate 579 -93 125 0
-93 -579 0
125 -579 0
93 -125 579 0
c gate 580 124 -579 0
124 -580 0
-579 -580 0
-124 579 580 0
c gate 581 -578 580 0
-578 -581 0
580 -581 0
578 -580 581 0
c gate 582 -124 494 0
-124 -582 0
494 -582 0
124 -494 582 0
c gate 583 -127 -582 0
-127 -583 0
-582 -583 0
127 582 583 0
c gate 584 -581 583 0
-581 -584 0
583 -584 0
581 -583 584 0
c gate 585 -126 -584 0
-126 -585 0
-584 -585 0
126 584 585 0
c gate 586 -577 585 0
-577 -586 0
585 -586 0
577 -585 586 0
c gate 587 -91 -125 0
-91 -587 0
-125 -587 0
91 125 587 0
c gate 588 -89 125 0
-89 -588 0
125 -588 0
89 -125 588 0
c gate 589 124 -588 0
124 -589 0
-588 -589 0
-124 588 589 0
c gate 590 -587 589 0
-587 -590 0
589 -590 0
587 -589 590 0
c gate 591 -124 510 0
-124 -591 0
510 -591 0
124 -510 591 0
c gate 592 -127 -591 0
-127 -592 0
-591 -592 0
127 591 592 0
c gate 593 -590 592 0
-590 -593 0
592 -593 0
590 -592 593 0
c gate 594 -82 125 0
-82 -594 0
125 -594 0
82 -125 594 0
c gate 595 -84 -125 0
-84 -595 0
-125 -595 0
84 125 595 0
c gate 596 -124 -595 0
-124 -596 0
-595 -596 0
124 595 596 0
c gate 597 -594 596 0
-594 -597 0
596 -597 0
594 -596 597 0
c gate 598 -81 125 0
-81 -598 0
125 -598 0
81 -125 598 0
c gate 599 -83 -125 0
-83 -599 0
-125 -599 0
83 125 599 0
c gate 600 124 -599 0
124 -600 0
-599 -600 0
-124 599 600 0
c gate 601 -598 600 0
-598 -601 0
600 -601 0
598 -600 601 0
c gate 602 127 -601 0
127 -602 0
-601 -602 0
-127 601 602 0
c gate 603 -597 602 0
-597 -603 0
602 -603 0
597 -602 603 0
c gate 604 126 -603 0
126 -604 0
-603 -604 0
-126 603 604 0
c gate 605 -593 604 0
-593 -605 0
604 -605 0
593 -604 605 0
c gate 606 -586 -605 0
-586 -606 0
-605 -606 0
586 605 606 0
c gate 607 129 -606 0
129 -607 0
-606 -607 0
-129 606 607 0
c gate 608 -117 -125 0
-117 -608 0
-125 -608 0
117 125 608 0
c gate 609 -115 125 0
-115 -609 0
125 -609 0
115 -125 609 0
c gate 610 124 -609 0
124 -610 0
-609 -610 0
-124 609 610 0
c gate 611 -608 610 0
-608 -611 0
610 -611 0
608 -610 611 0
c gate 612 -124 534 0
-124 -612 0
534 -612 0
124 -534 612 0
c gate 613 127 -612 0
127 -613 0
-612 -613 0
-127 612 613 0
c gate 614 -611 613 0
-611 -614 0
613 -614 0
611 -613 614 0
c gate 615 -2 -125 0
-2 -615 0
-125 -615 0
2 125 615 0
c gate 616 -123 125 0
-123 -616 0
125 -616 0
123 -125 616 0
c gate 617 124 -616 0
124 -617 0
-616 -617 0
-124 616 617 0
c gate 618 -615 617 0
-615 -618 0
617 -618 0
615 -617 618 0
c gate 619 -124 524 0
-124 -619 0
524 -619 0
124 -524 619 0
c gate 620 -127 -619 0
-127 -620 0
-619 -620 0
127 619 620 0
c gate 621 -618 620 0
-618 -621 0
620 -621 0
618 -620 621 0
c gate 622 -126 -621 0
-126 -622 0
-621 -622 0
126 621 622 0
c gate 623 -614 622 0
-614 -623 0
622 -623 0
614 -622 623 0
c gate 624 -121 -125 0
-121 -624 0
-125 -624 0
121 125 624 0
c gate 625 -119 125 0
-119 -625 0
125 -625 0
119 -125 625 0
c gate 626 124 -625 0
124 -626 0
-625 -626 0
-124 625 626 0
c gate 627 -624 626 0
-624 -627 0
626 -627 0
624 -626 627 0
c gate 628 -124 560 0
-124 -628 0
560 -628 0
124 -560 628 0
c gate 629 -127 -628 0
-127 -629 0
-628 -629 0
127 628 629 0
c gate 630 -627 629 0
-627 -630 0
629 -630 0
627 -629 630 0
c gate 631 -112 125 0
-112 -631 0
125 -631 0
112 -125 631 0
c gate 632 -114 -125 0
-114 -632 0
-125 -632 0
114 125 632 0
c gate 633 -124 -632 0
-124 -633 0
-632 -633 0
124 632 633 0
c gate 634 -631 633 0
-631 -634 0
633 -634 0
631 -633 634 0
c gate 635 -111 125 0
-111 -635 0
125 -635 0
111 -125 635 0
c gate 636 -113 -125 0
-113 -636 0
-125 -636 0
113 125 636 0
c gate 637 124 -636 0
124 -637 0
-636 -637 0
-124 636 637 0
c gate 638 -635 637 0
-635 -638 0
637 -638 0
635 -637 638 0
c gate 639 127 -638 0
127 -639 0
-638 -639 0
-127 638 639 0
c gate 640 -634 639 0
-634 -640 0
639 -640 0
634 -639 640 0
c gate 641 126 -640 0
126 -641 0
-640 -641 0
-126 640 641 0
c gate 642 -630 641 0
-630 -642 0
641 -642 0
630 -641 642 0
c gate 643 -623 -642 0
-623 -643 0
-642 -643 0
623 642 643 0
c gate 644 -129 -643 0
-129 -644 0
-643 -644 0
129 643 644 0
c gate 645 128 -644 0
128 -645 0
-644 -645 0
-128 644 645 0
c gate 646 -607 645 0
-607 -646 0
645 -646 0
607 -645 646 0
c gate 647 130 646 0
130 -647 0
646 -647 0
-130 -646 647 0
c gate 648 -570 -647 0
-570 -648 0
-647 -648 0
570 647 648 0
c gate 649 -225 648 0
-225 -649 0
648 -649 0
225 -648 649 0
c gate 650 -481 649 0
-481 -650 0
649 -650 0
481 -649 650 0
c gate 651 -130 476 0
-130 -651 0
476 -651 0
130 -476 651 0
c gate 652 -130 307 0
-130 -652 0
307 -652 0
130 -307 652 0
c gate 653 -651 -652 0
-651 -653 0
-652 -653 0
651 652 653 0
c gate 654 -650 653 0
-650 -654 0
653 -654 0
650 -653 654 0
c gate 655 127 437 0
127 -655 0
437 -655 0
-127 -437 655 0
c gate 656 -35 125 0
-35 -656 0
125 -656 0
35 -125 656 0
c gate 657 -37 -125 0
-37 -657 0
-125 -657 0
37 125 657 0
c gate 658 124 -657 0
124 -658 0
-657 -658 0
-124 657 658 0
c gate 659 -656 658 0
-656 -659 0
658 -659 0
656 -658 659 0
c gate 660 -36 125 0
-36 -660 0
125 -660 0
36 -125 660 0
c gate 661 -38 -125 0
-38 -661 0
-125 -661 0
38 125 661 0
c gate 662 -124 -661 0
-124 -662 0
-661 -662 0
124 661 662 0
c gate 663 -660 662 0
-660 -663 0
662 -663 0
660 -662 663 0
c gate 664 -659 -663 0
-659 -664 0
-663 -664 0
659 663 664 0
c gate 665 -127 -664 0
-127 -665 0
-664 -665 0
127 664 665 0
c gate 666 -126 -665 0
-126 -666 0
-665 -666 0
126 665 666 0
c gate 667 -655 666 0
-655 -667 0
666 -667 0
655 -666 667 0
c gate 668 126 -471 0
126 -668 0
-471 -668 0
-126 471 668 0
c gate 669 -129 -668 0
-129 -669 0
-668 -669 0
129 668 669 0
c gate 670 -667 669 0
-667 -670 0
669 -670 0
667 -669 670 0
c gate 671 129 566 0
129 -671 0
566 -671 0
-129 -566 671 0
c gate 672 128 -671 0
128 -672 0
-671 -672 0
-128 671 672 0
c gate 673 -670 672 0
-670 -673 0
672 -673 0
670 -672 673 0
c gate 674 130 673 0
130 -674 0
673 -674 0
-130 -673 674 0
c gate 675 -654 -674 0
-654 -675 0
-674 -675 0
654 674 675 0
c gate 676 -479 -675 0
-479 -676 0
-675 -676 0
479 675 676 0
c gate 677 -130 224 0
-130 -677 0
224 -677 0
130 -224 677 0
c gate 678 -130 646 0
-130 -678 0
646 -678 0
130 -646 678 0
c gate 679 -677 -678 0
-677 -679 0
-678 -679 0
677 678 679 0
c gate 680 -130 569 0
-130 -680 0
569 -680 0
130 -569 680 0
c gate 681 679 -680 0
679 -681 0
-680 -681 0
-679 680 681 0
c gate 682 -130 673 0
-130 -682 0
673 -682 0
130 -673 682 0
c gate 683 681 -682 0
681 -683 0
-682 -683 0
-681 682 683 0
c gate 684 675 -683 0
675 -684 0
-683 -684 0
-675 683 684 0
c gate 685 -676 -684 0
-676 -685 0
-684 -685 0
676 684 685 0
c gate 686 225 -685 0
225 -686 0
-685 -686 0
-225 685 686 0
c gate 687 -225 685 0
-225 -687 0
685 -687 0
225 -685 687 0
c gate 688 -686 -687 0
-686 -688 0
-687 -688 0
686 687 688 0
c PO
688 0
